9848.0
[0, 0, 0, 0, 0, 0, 0, 1, 1, 1, 1, 6, 6, 6, 6, 2, 2, 3, 2, 3, 2, 4, 4, 4, 4, 4, 4, 4, 4, 5, 5, 5, 5, 5, 5, 5, 5, 5, 0, 0, 2, 3, 11, 12, 18, 16, 19, 7, 15, 16, 8, 13, 11, 16, 18, 19, 14, 15, 10, 9, 12, 9, 15, 17, 13, 13, 8, 12, 7, 10, 18, 12, 13, 17, 14, 17, 8, 16, 10, 7]